Version identifier: 12.10.0.0 | 2019-11-26 | 843d4de
CPXPARAM_Read_DataCheck                          1
CPXPARAM_RandomSeed                              201903125
CPXPARAM_TimeLimit                               7200
Parallel mode: deterministic, using up to 8 threads for concurrent optimization:
 * Starting dual Simplex on 1 thread...
 * Starting Barrier on 6 threads...
 * Starting primal Simplex on 1 thread...
Tried aggregator 1 time.
No LP presolve or aggregator reductions.
Presolve time = 0.00 sec. (2.47 ticks)

Iteration log . . .
Iteration:     1   Dual objective     =           935.000000
Iteration:    96   Dual objective     =           935.000000
Perturbation started.
Iteration:   101   Dual objective     =           935.000000
Iteration:   207   Dual objective     =           935.013007
Iteration:   374   Dual objective     =           935.013142
Iteration:   540   Dual objective     =           935.013145
Iteration:   710   Dual objective     =           935.013148
Iteration:   886   Dual objective     =           935.013149
Iteration:  1064   Dual objective     =           935.013150
Removing perturbation.

Dual simplex solved model.

